p tw 45 49
1 2
2 13
3 4
4 5
5 6
6 7
7 8
8 9
8 36
9 10
10 11
11 12
12 14
12 16
13 24
14 15
15 18
16 17
17 18
18 19
19 20
20 21
21 22
22 23
22 26
23 25
24 35
25 28
26 27
27 28
28 29
29 30
30 31
30 41
31 32
32 33
33 34
34 39
35 41
36 37
37 38
37 41
38 39
39 40
41 42
42 43
43 44
44 45
45 3
